Instance name:    bar-n100-2
Authors:          PDPTW Solver
Date:             2025-11-20
Reference:        LNS with SA/RTR
Solution
Route 1 : 15 65 17 40 90 5 37 87 67 45 95 47 97 10 55 2 52 60 41 91 14 64
Route 2 : 20 70 28 78 49 99 35 85 24 74
Route 3 : 34 84 12 62 13 63 19 9 59 16 69 50 66 21 71 1 51 4 54 100 25 75 22 72
Route 4 : 39 89 43 30 29 79 80 18 68 36 86 23 93 73 8 11 61 38 58 88 7 57
Route 5 : 27 26 76 42 92 77 31 33 83 81 6 48 98 56 44 94 3 53 32 82 46 96
